robust/generate/spp_dkp_Lefebvre_et_al_2026/src/shortest_path_4_1.kp
43
85

[0.98 5.18 1.13 2.05 2.78 7.3 5.66 4.6 0.25 6.24]

[58 35 35 51 73 49 30 85 39 82]
